Gurobi Optimizer version 9.1.2 build v9.1.2rc0 (linux64)
Thread count: 36 physical cores, 72 logical processors, using up to 32 threads
Optimize a model with 12 rows, 57 columns and 590 nonzeros
Model fingerprint: 0xf32eec78
Model has 47 quadratic constraints
Coefficient statistics:
  Matrix range     [2e-05, 3e+00]
  QMatrix range    [1e+00, 1e+00]
  QLMatrix range   [1e+00, 1e+00]
  Objective range  [8e-03, 7e-01]
  Bounds range     [1e+00, 1e+00]
  RHS range        [1e+00, 1e+00]
Presolve removed 9 rows and 0 columns

Continuous model is non-convex -- solving as a MIP.

Presolve removed 9 rows and 0 columns
Presolve time: 0.00s
Presolved: 189 rows, 57 columns, 443 nonzeros
Presolved model has 47 bilinear constraint(s)
Variable types: 57 continuous, 0 integer (0 binary)

Root relaxation: objective -1.743721e+00, 44 iterations, 0.00 seconds

    Nodes    |    Current Node    |     Objective Bounds      |     Work
 Expl Unexpl |  Obj  Depth IntInf | Incumbent    BestBd   Gap | It/Node Time

     0     0   -1.74372    0   38          -   -1.74372      -     -    0s
H    0     0                       0.6147548   -1.74372   384%     -    0s
     0     0   -1.64739    0    1    0.61475   -1.64739   368%     -    0s
H    0     0                      -1.6450460   -1.64739  0.14%     -    0s
     0     0     cutoff    0        -1.64505   -1.64505  0.00%     -    0s

Cutting planes:
  RLT: 25
  BQP: 3

Explored 1 nodes (76 simplex iterations) in 0.01 seconds
Thread count was 32 (of 72 available processors)

Solution count 2: -1.64505 0.614755 
No other solutions better than -1.64505

Optimal solution found (tolerance 1.00e-04)
Best objective -1.645045978473e+00, best bound -1.645045978473e+00, gap 0.0000%

User-callback calls 78, time in user-callback 0.00 sec
Gurobi Optimizer version 9.1.2 build v9.1.2rc0 (linux64)
Thread count: 36 physical cores, 72 logical processors, using up to 32 threads
Optimize a model with 60 rows, 300 columns and 15500 nonzeros
Model fingerprint: 0xc1cdc6c7
Model has 250 quadratic constraints
Coefficient statistics:
  Matrix range     [1e-06, 4e+00]
  QMatrix range    [1e+00, 1e+00]
  QLMatrix range   [1e+00, 1e+00]
  Objective range  [2e-04, 1e+00]
  Bounds range     [1e+00, 1e+00]
  RHS range        [1e+00, 1e+00]
Presolve removed 10 rows and 0 columns

Continuous model is non-convex -- solving as a MIP.

Presolve removed 10 rows and 0 columns
Presolve time: 0.01s
Presolved: 1050 rows, 300 columns, 14462 nonzeros
Presolved model has 250 bilinear constraint(s)
Variable types: 300 continuous, 0 integer (0 binary)

Root relaxation: objective -2.718430e+01, 372 iterations, 0.02 seconds

    Nodes    |    Current Node    |     Objective Bounds      |     Work
 Expl Unexpl |  Obj  Depth IntInf | Incumbent    BestBd   Gap | It/Node Time

     0     0  -27.18430    0  199          -  -27.18430      -     -    0s
     0     0  -25.29621    0  187          -  -25.29621      -     -    0s
     0     0  -24.87913    0  142          -  -24.87913      -     -    0s
     0     0  -24.87441    0  142          -  -24.87441      -     -    0s
H    0     0                     -20.2955158  -24.87441  22.6%     -    0s
     0     2  -24.87441    0  142  -20.29552  -24.87441  22.6%     -    0s
* 1619  1635              52     -22.8803091  -23.75920  3.84%  49.6    1s
* 2768  1774              39     -22.8875381  -23.56027  2.94%  46.9    2s
* 3009  1745              52     -22.8877613  -23.44214  2.42%  46.0    2s
* 3010  1745              52     -22.8877735  -23.44214  2.42%  46.0    2s
* 3036  1745              61     -22.8888648  -23.44214  2.42%  46.0    2s
* 3038  1745              62     -22.8888737  -23.44214  2.42%  45.9    2s
* 3040  1745              60     -22.8888865  -23.44214  2.42%  45.9    2s
* 3486  1811              64     -22.8892236  -23.26926  1.66%  44.0    2s
* 3487  1811              64     -22.8892237  -23.26926  1.66%  43.9    2s
* 3686  1851              49     -22.8910427  -23.26926  1.65%  42.7    2s
* 3687  1851              49     -22.8910838  -23.26926  1.65%  42.7    2s
* 3689  1851              49     -22.8911154  -23.26926  1.65%  42.6    2s
* 3693  1851              49     -22.8911185  -23.26926  1.65%  42.6    2s
* 3694  1851              49     -22.8911485  -23.26926  1.65%  42.6    2s
* 3701  1851              52     -22.8925397  -23.26926  1.65%  42.5    2s
* 3931  1789              49     -22.8999120  -23.26926  1.61%  41.2    2s
* 4047  1789              52     -22.9003560  -23.26926  1.61%  40.8    2s
* 4048  1789              52     -22.9004391  -23.26926  1.61%  40.8    2s
* 4051  1789              52     -22.9004400  -23.26926  1.61%  40.8    2s
* 4076  1789              49     -22.9129555  -23.26926  1.56%  40.6    2s
* 4539  1769              38     -22.9154597  -23.22562  1.35%  39.1    2s
* 4587  1769              43     -22.9155874  -23.22562  1.35%  39.0    2s
* 4993  1880              49     -22.9169977  -23.14598  1.00%  37.9    3s
* 4995  1880              50     -22.9170735  -23.14598  1.00%  37.9    3s
* 4997  1880              51     -22.9170763  -23.14598  1.00%  37.8    3s
* 5486  1903              43     -22.9174719  -23.14598  1.00%  36.0    3s
* 5580  1993              54     -22.9175205  -23.14598  1.00%  35.6    3s
* 5585  1993              57     -22.9175527  -23.14598  1.00%  35.6    3s
* 5669  1993              49     -22.9177338  -23.14598  1.00%  35.3    3s
* 5683  1993              58     -22.9198598  -23.14598  0.99%  35.3    3s
* 5684  1993              58     -22.9198624  -23.14598  0.99%  35.2    3s
* 7860   526              57     -22.9220013  -23.14598  0.98%  41.5    4s
* 7861   479              57     -22.9220162  -23.14598  0.98%  41.4    4s
* 7862   434              56     -22.9223605  -23.14598  0.98%  41.4    4s
* 8071   372              57     -22.9224411  -23.14598  0.98%  41.0    4s
* 8073   331              56     -22.9224412  -23.14598  0.98%  41.0    4s
  8089   400  -23.05561   23   26  -22.92244  -23.14598  0.98%  40.9    5s
* 8165   388              51     -22.9227095  -23.14598  0.97%  40.9    5s
* 8167   388              52     -22.9227120  -23.14598  0.97%  40.9    5s
* 8289   388              58     -22.9230330  -23.14598  0.97%  40.4    5s
* 8291   388              59     -22.9230356  -23.14598  0.97%  40.3    5s
* 8292   388              59     -22.9230357  -23.14598  0.97%  40.3    5s
* 8338   444              61     -22.9240366  -23.14598  0.97%  40.4    5s
* 8341   444              63     -22.9244275  -23.14598  0.97%  40.4    5s
* 8492   444              51     -22.9264285  -23.14598  0.96%  39.8    5s
* 8493   444              51     -22.9264285  -23.14598  0.96%  39.8    5s
* 8496   444              52     -22.9264318  -23.14598  0.96%  39.8    5s
* 8560   509              52     -22.9420926  -23.14598  0.89%  39.7    5s
* 8943   551              61     -22.9459946  -23.14598  0.87%  38.7    5s
* 9478   468              51     -22.9460015  -23.14598  0.87%  37.4    5s
* 9503   468              53     -22.9460447  -23.14598  0.87%  37.3    5s
* 9504   468              53     -22.9460564  -23.14598  0.87%  37.3    5s
* 9705   447              50     -22.9461900  -23.14598  0.87%  36.9    5s
* 9706   447              50     -22.9461932  -23.14598  0.87%  36.9    5s
* 9709   447              49     -22.9462333  -23.14598  0.87%  36.9    5s
* 9913   472              55     -22.9463068  -23.14598  0.87%  36.5    5s
*10183   494              56     -22.9463084  -23.14598  0.87%  35.9    5s
*10297   494              56     -22.9464134  -23.14598  0.87%  35.6    5s
*10494   537              54     -22.9465264  -23.14598  0.87%  35.2    5s
*11284   651              62     -22.9465359  -23.14598  0.87%  33.3    5s
*11285   651              62     -22.9465366  -23.14598  0.87%  33.3    5s
*11287   651              62     -22.9465372  -23.14598  0.87%  33.3    5s
*11288   651              62     -22.9465374  -23.14598  0.87%  33.3    5s
*11293   651              51     -22.9465420  -23.14598  0.87%  33.3    5s
*11436   721              56     -22.9467213  -23.14598  0.87%  33.1    5s
*12405   839              52     -22.9467244  -23.14598  0.87%  31.2    5s
*12408   839              52     -22.9467247  -23.14598  0.87%  31.2    5s
*12635   924              56     -22.9467264  -23.14598  0.87%  30.8    5s
*12638   924              57     -22.9467289  -23.14598  0.87%  30.8    5s
*12905  1027              57     -22.9468153  -23.14598  0.87%  30.3    6s
*12906  1027              57     -22.9468153  -23.14598  0.87%  30.3    6s
*12911  1027              58     -22.9468166  -23.14598  0.87%  30.3    6s
*12912  1027              58     -22.9468167  -23.14598  0.87%  30.3    6s
*12978  1027              61     -22.9471900  -23.14598  0.87%  30.2    6s
*13409  1090              62     -22.9471992  -23.14598  0.87%  29.4    6s
*13410  1090              62     -22.9471994  -23.14598  0.87%  29.4    6s
*14495  1295              65     -22.9472790  -22.97434  0.12%  27.7    6s
*14496  1295              65     -22.9473157  -22.97434  0.12%  27.7    6s
*14840  1390              64     -22.9473335  -22.97255  0.11%  27.1    6s
*14982  1390              64     -22.9473914  -22.97255  0.11%  26.9    6s
*14984  1390              65     -22.9474018  -22.97255  0.11%  26.9    6s
*14987  1390              64     -22.9474901  -22.97255  0.11%  26.9    6s
*15215  1390              55     -22.9480457  -22.97255  0.11%  26.6    6s
*16760  1601              64     -22.9480631  -22.95385  0.03%  24.5    6s
*16765  1601              65     -22.9482199  -22.95385  0.02%  24.5    6s
*16772  1601              65     -22.9482630  -22.95385  0.02%  24.5    6s
*18639  1460              63     -22.9482923  -22.94962  0.01%  22.6    6s
*18641  1460              64     -22.9482970  -22.94962  0.01%  22.6    6s
*18642  1460              64     -22.9482971  -22.94962  0.01%  22.6    6s
*18647  1460              64     -22.9482972  -22.94962  0.01%  22.6    6s
*18656  1460              61     -22.9483069  -22.94962  0.01%  22.5    6s
*19046  1460              60     -22.9483106  -22.94962  0.01%  22.2    6s

Explored 19055 nodes (422655 simplex iterations) in 6.94 seconds
Thread count was 32 (of 72 available processors)

Solution count 10: -22.9483 -22.9483 -22.9483 ... -22.9474

Optimal solution found (tolerance 1.00e-04)
Best objective -2.294831062644e+01, best bound -2.294961996551e+01, gap 0.0057%

User-callback calls 39120, time in user-callback 0.01 sec



objective value: -22.948310626443877
objective bound: -22.94961996550809
x_opt: [0.0, 1.0, 1.0, 0.0, 0.0, 0.0, 1.0, 1.0, 0.0, 0.0, 0.13372593396723406, 0.32426107898032597, 0.0, 1.0, 1.0, 1.0, 0.0, 1.0, 0.0, 0.0, 0.0, 1.0, 1.0, 1.0, 0.0, 1.0, 1.0, 1.0, 0.0, 0.7781381674371233, 0.8822137130196198, 0.7096073619779993, 0.0, 0.29848723174671427, 1.0, 1.0, 1.0, 0.9998433050363448, 0.6202690951641766, 1.0, 0.9676950998985758, 0.4585511007830499, 1.0, 0.0, 0.0, 0.7799069159342494, 0.0007659299774405419, 0.011333027506412694, 0.0, 1.0]
GUROBI solution time: 6.94417405128479

